p cnf 386 460
18 -5 16 21 22 0
18 -5 16 21 -22 0
18 -5 16 -21 23 0
18 -5 16 -21 -23 0
1 -5 8 24 25 0
1 -5 8 24 -25 0
1 -5 8 -24 26 0
1 -5 8 -24 -26 0
-7 16 -20 27 28 0
-7 16 -20 27 -28 0
-7 16 -20 -27 29 0
-7 16 -20 -27 -29 0
18 -14 15 30 31 0
18 -14 15 30 -31 0
18 -14 15 -30 32 0
18 -14 15 -30 -32 0
19 -3 -11 33 34 0
19 -3 -11 33 -34 0
19 -3 -11 -33 35 0
19 -3 -11 -33 -35 0
-6 -3 -13 36 37 0
-6 -3 -13 36 -37 0
-6 -3 -13 -36 38 0
-6 -3 -13 -36 -38 0
15 -20 1 39 40 0
15 -20 1 39 -40 0
15 -20 1 -39 41 0
15 -20 1 -39 -41 0
11 -10 -4 42 43 0
11 -10 -4 42 -43 0
11 -10 -4 -42 44 0
11 -10 -4 -42 -44 0
-2 -4 14 45 46 0
-2 -4 14 45 -46 0
-2 -4 14 -45 47 0
-2 -4 14 -45 -47 0
10 19 5 48 49 0
10 19 5 48 -49 0
10 19 5 -48 50 0
10 19 5 -48 -50 0
18 12 -5 51 52 0
18 12 -5 51 -52 0
18 12 -5 -51 53 0
18 12 -5 -51 -53 0
3 20 -18 54 55 0
3 20 -18 54 -55 0
3 20 -18 -54 56 0
3 20 -18 -54 -56 0
-8 -15 -1 57 58 0
-8 -15 -1 57 -58 0
-8 -15 -1 -57 59 0
-8 -15 -1 -57 -59 0
12 -1 -15 60 61 0
12 -1 -15 60 -61 0
12 -1 -15 -60 62 0
12 -1 -15 -60 -62 0
-8 2 -11 63 64 0
-8 2 -11 63 -64 0
-8 2 -11 -63 65 0
-8 2 -11 -63 -65 0
-13 19 -9 66 67 0
-13 19 -9 66 -67 0
-13 19 -9 -66 68 0
-13 19 -9 -66 -68 0
-17 -11 -14 69 70 0
-17 -11 -14 69 -70 0
-17 -11 -14 -69 71 0
-17 -11 -14 -69 -71 0
6 -3 -12 72 73 0
6 -3 -12 72 -73 0
6 -3 -12 -72 74 0
6 -3 -12 -72 -74 0
-18 5 11 75 76 0
-18 5 11 75 -76 0
-18 5 11 -75 77 0
-18 5 11 -75 -77 0
4 17 -14 78 79 0
4 17 -14 78 -79 0
4 17 -14 -78 80 0
4 17 -14 -78 -80 0
-1 -4 -19 81 82 0
-1 -4 -19 81 -82 0
-1 -4 -19 -81 83 0
-1 -4 -19 -81 -83 0
15 -3 7 84 85 0
15 -3 7 84 -85 0
15 -3 7 -84 86 0
15 -3 7 -84 -86 0
15 -19 16 87 88 0
15 -19 16 87 -88 0
15 -19 16 -87 89 0
15 -19 16 -87 -89 0
-19 18 -16 90 91 0
-19 18 -16 90 -91 0
-19 18 -16 -90 92 0
-19 18 -16 -90 -92 0
15 -5 1 93 94 0
15 -5 1 93 -94 0
15 -5 1 -93 95 0
15 -5 1 -93 -95 0
-19 -14 -9 96 97 0
-19 -14 -9 96 -97 0
-19 -14 -9 -96 98 0
-19 -14 -9 -96 -98 0
-11 -7 -2 99 100 0
-11 -7 -2 99 -100 0
-11 -7 -2 -99 101 0
-11 -7 -2 -99 -101 0
-20 -10 17 102 103 0
-20 -10 17 102 -103 0
-20 -10 17 -102 104 0
-20 -10 17 -102 -104 0
-1 9 -7 105 106 0
-1 9 -7 105 -106 0
-1 9 -7 -105 107 0
-1 9 -7 -105 -107 0
-14 15 18 108 109 0
-14 15 18 108 -109 0
-14 15 18 -108 110 0
-14 15 18 -108 -110 0
19 -2 -3 111 112 0
19 -2 -3 111 -112 0
19 -2 -3 -111 113 0
19 -2 -3 -111 -113 0
7 10 -1 114 115 0
7 10 -1 114 -115 0
7 10 -1 -114 116 0
7 10 -1 -114 -116 0
7 6 -5 117 118 0
7 6 -5 117 -118 0
7 6 -5 -117 119 0
7 6 -5 -117 -119 0
-13 -1 4 120 121 0
-13 -1 4 120 -121 0
-13 -1 4 -120 122 0
-13 -1 4 -120 -122 0
13 10 19 123 124 0
13 10 19 123 -124 0
13 10 19 -123 125 0
13 10 19 -123 -125 0
20 1 4 126 127 0
20 1 4 126 -127 0
20 1 4 -126 128 0
20 1 4 -126 -128 0
-17 14 -13 129 130 0
-17 14 -13 129 -130 0
-17 14 -13 -129 131 0
-17 14 -13 -129 -131 0
-13 -8 4 132 133 0
-13 -8 4 132 -133 0
-13 -8 4 -132 134 0
-13 -8 4 -132 -134 0
-12 3 5 135 136 0
-12 3 5 135 -136 0
-12 3 5 -135 137 0
-12 3 5 -135 -137 0
-19 14 -10 138 139 0
-19 14 -10 138 -139 0
-19 14 -10 -138 140 0
-19 14 -10 -138 -140 0
19 4 13 141 142 0
19 4 13 141 -142 0
19 4 13 -141 143 0
19 4 13 -141 -143 0
-5 -3 -14 144 145 0
-5 -3 -14 144 -145 0
-5 -3 -14 -144 146 0
-5 -3 -14 -144 -146 0
-15 13 -3 147 148 0
-15 13 -3 147 -148 0
-15 13 -3 -147 149 0
-15 13 -3 -147 -149 0
3 -1 -17 150 151 0
3 -1 -17 150 -151 0
3 -1 -17 -150 152 0
3 -1 -17 -150 -152 0
-8 -15 -12 153 154 0
-8 -15 -12 153 -154 0
-8 -15 -12 -153 155 0
-8 -15 -12 -153 -155 0
10 -11 19 156 157 0
10 -11 19 156 -157 0
10 -11 19 -156 158 0
10 -11 19 -156 -158 0
-3 -17 8 159 160 0
-3 -17 8 159 -160 0
-3 -17 8 -159 161 0
-3 -17 8 -159 -161 0
-12 9 20 162 163 0
-12 9 20 162 -163 0
-12 9 20 -162 164 0
-12 9 20 -162 -164 0
9 -11 10 165 166 0
9 -11 10 165 -166 0
9 -11 10 -165 167 0
9 -11 10 -165 -167 0
-3 6 -20 168 169 0
-3 6 -20 168 -169 0
-3 6 -20 -168 170 0
-3 6 -20 -168 -170 0
11 -13 -3 171 172 0
11 -13 -3 171 -172 0
11 -13 -3 -171 173 0
11 -13 -3 -171 -173 0
14 -19 12 174 175 0
14 -19 12 174 -175 0
14 -19 12 -174 176 0
14 -19 12 -174 -176 0
8 7 14 177 178 0
8 7 14 177 -178 0
8 7 14 -177 179 0
8 7 14 -177 -179 0
16 -9 12 180 181 0
16 -9 12 180 -181 0
16 -9 12 -180 182 0
16 -9 12 -180 -182 0
10 -17 -16 183 184 0
10 -17 -16 183 -184 0
10 -17 -16 -183 185 0
10 -17 -16 -183 -185 0
1 -2 13 186 187 0
1 -2 13 186 -187 0
1 -2 13 -186 188 0
1 -2 13 -186 -188 0
18 5 -6 189 190 0
18 5 -6 189 -190 0
18 5 -6 -189 191 0
18 5 -6 -189 -191 0
15 -13 6 192 193 0
15 -13 6 192 -193 0
15 -13 6 -192 194 0
15 -13 6 -192 -194 0
-11 15 -3 195 196 0
-11 15 -3 195 -196 0
-11 15 -3 -195 197 0
-11 15 -3 -195 -197 0
-8 5 -17 198 199 0
-8 5 -17 198 -199 0
-8 5 -17 -198 200 0
-8 5 -17 -198 -200 0
18 19 -20 201 202 0
18 19 -20 201 -202 0
18 19 -20 -201 203 0
18 19 -20 -201 -203 0
-13 -12 8 204 205 0
-13 -12 8 204 -205 0
-13 -12 8 -204 206 0
-13 -12 8 -204 -206 0
11 18 10 207 208 0
11 18 10 207 -208 0
11 18 10 -207 209 0
11 18 10 -207 -209 0
19 -4 -3 210 211 0
19 -4 -3 210 -211 0
19 -4 -3 -210 212 0
19 -4 -3 -210 -212 0
12 3 7 213 214 0
12 3 7 213 -214 0
12 3 7 -213 215 0
12 3 7 -213 -215 0
-5 -8 3 216 217 0
-5 -8 3 216 -217 0
-5 -8 3 -216 218 0
-5 -8 3 -216 -218 0
-6 8 -4 219 220 0
-6 8 -4 219 -220 0
-6 8 -4 -219 221 0
-6 8 -4 -219 -221 0
-15 1 4 222 223 0
-15 1 4 222 -223 0
-15 1 4 -222 224 0
-15 1 4 -222 -224 0
17 -5 11 225 226 0
17 -5 11 225 -226 0
17 -5 11 -225 227 0
17 -5 11 -225 -227 0
15 -2 -8 228 229 0
15 -2 -8 228 -229 0
15 -2 -8 -228 230 0
15 -2 -8 -228 -230 0
-7 -19 -13 231 232 0
-7 -19 -13 231 -232 0
-7 -19 -13 -231 233 0
-7 -19 -13 -231 -233 0
6 -18 -1 234 235 0
6 -18 -1 234 -235 0
6 -18 -1 -234 236 0
6 -18 -1 -234 -236 0
4 10 -11 237 238 0
4 10 -11 237 -238 0
4 10 -11 -237 239 0
4 10 -11 -237 -239 0
16 -4 7 240 241 0
16 -4 7 240 -241 0
16 -4 7 -240 242 0
16 -4 7 -240 -242 0
2 16 15 243 244 0
2 16 15 243 -244 0
2 16 15 -243 245 0
2 16 15 -243 -245 0
10 -5 -18 246 247 0
10 -5 -18 246 -247 0
10 -5 -18 -246 248 0
10 -5 -18 -246 -248 0
16 15 12 249 250 0
16 15 12 249 -250 0
16 15 12 -249 251 0
16 15 12 -249 -251 0
-9 19 12 252 253 0
-9 19 12 252 -253 0
-9 19 12 -252 254 0
-9 19 12 -252 -254 0
-12 -9 -18 255 256 0
-12 -9 -18 255 -256 0
-12 -9 -18 -255 257 0
-12 -9 -18 -255 -257 0
-5 -17 -8 258 259 0
-5 -17 -8 258 -259 0
-5 -17 -8 -258 260 0
-5 -17 -8 -258 -260 0
3 -10 -18 261 262 0
3 -10 -18 261 -262 0
3 -10 -18 -261 263 0
3 -10 -18 -261 -263 0
11 -15 -8 264 265 0
11 -15 -8 264 -265 0
11 -15 -8 -264 266 0
11 -15 -8 -264 -266 0
-3 8 16 267 268 0
-3 8 16 267 -268 0
-3 8 16 -267 269 0
-3 8 16 -267 -269 0
-17 -15 9 270 271 0
-17 -15 9 270 -271 0
-17 -15 9 -270 272 0
-17 -15 9 -270 -272 0
-7 -17 -20 273 274 0
-7 -17 -20 273 -274 0
-7 -17 -20 -273 275 0
-7 -17 -20 -273 -275 0
7 -19 9 276 277 0
7 -19 9 276 -277 0
7 -19 9 -276 278 0
7 -19 9 -276 -278 0
17 -9 2 279 280 0
17 -9 2 279 -280 0
17 -9 2 -279 281 0
17 -9 2 -279 -281 0
-2 14 -9 282 283 0
-2 14 -9 282 -283 0
-2 14 -9 -282 284 0
-2 14 -9 -282 -284 0
17 -5 -6 285 286 0
17 -5 -6 285 -286 0
17 -5 -6 -285 287 0
17 -5 -6 -285 -287 0
10 -6 14 288 289 0
10 -6 14 288 -289 0
10 -6 14 -288 290 0
10 -6 14 -288 -290 0
-9 6 7 291 292 0
-9 6 7 291 -292 0
-9 6 7 -291 293 0
-9 6 7 -291 -293 0
294 295 297 301 309 0
294 295 297 301 -309 0
294 295 297 -301 310 0
294 295 297 -301 -310 0
294 295 -297 302 311 0
294 295 -297 302 -311 0
294 295 -297 -302 312 0
294 295 -297 -302 -312 0
294 -295 298 303 313 0
294 -295 298 303 -313 0
294 -295 298 -303 314 0
294 -295 298 -303 -314 0
294 -295 -298 304 315 0
294 -295 -298 304 -315 0
294 -295 -298 -304 316 0
294 -295 -298 -304 -316 0
-294 296 299 305 317 0
-294 296 299 305 -317 0
-294 296 299 -305 318 0
-294 296 299 -305 -318 0
-294 296 -299 306 319 0
-294 296 -299 306 -319 0
-294 296 -299 -306 320 0
-294 296 -299 -306 -320 0
-294 -296 300 307 321 0
-294 -296 300 307 -321 0
-294 -296 300 -307 322 0
-294 -296 300 -307 -322 0
-294 -296 -300 308 323 0
-294 -296 -300 308 -323 0
-294 -296 -300 -308 324 0
-294 -296 -300 -308 -324 0
325 326 328 332 340 0
325 326 328 332 -340 0
325 326 328 -332 341 0
325 326 328 -332 -341 0
325 326 -328 333 342 0
325 326 -328 333 -342 0
325 326 -328 -333 343 0
325 326 -328 -333 -343 0
325 -326 329 334 344 0
325 -326 329 334 -344 0
325 -326 329 -334 345 0
325 -326 329 -334 -345 0
325 -326 -329 335 346 0
325 -326 -329 335 -346 0
325 -326 -329 -335 347 0
325 -326 -329 -335 -347 0
-325 327 330 336 348 0
-325 327 330 336 -348 0
-325 327 330 -336 349 0
-325 327 330 -336 -349 0
-325 327 -330 337 350 0
-325 327 -330 337 -350 0
-325 327 -330 -337 351 0
-325 327 -330 -337 -351 0
-325 -327 331 338 352 0
-325 -327 331 338 -352 0
-325 -327 331 -338 353 0
-325 -327 331 -338 -353 0
-325 -327 -331 339 354 0
-325 -327 -331 339 -354 0
-325 -327 -331 -339 355 0
-325 -327 -331 -339 -355 0
356 357 359 363 371 0
356 357 359 363 -371 0
356 357 359 -363 372 0
356 357 359 -363 -372 0
356 357 -359 364 373 0
356 357 -359 364 -373 0
356 357 -359 -364 374 0
356 357 -359 -364 -374 0
356 -357 360 365 375 0
356 -357 360 365 -375 0
356 -357 360 -365 376 0
356 -357 360 -365 -376 0
356 -357 -360 366 377 0
356 -357 -360 366 -377 0
356 -357 -360 -366 378 0
356 -357 -360 -366 -378 0
-356 358 361 367 379 0
-356 358 361 367 -379 0
-356 358 361 -367 380 0
-356 358 361 -367 -380 0
-356 358 -361 368 381 0
-356 358 -361 368 -381 0
-356 358 -361 -368 382 0
-356 358 -361 -368 -382 0
-356 -358 362 369 383 0
-356 -358 362 369 -383 0
-356 -358 362 -369 384 0
-356 -358 362 -369 -384 0
-356 -358 -362 370 385 0
-356 -358 -362 370 -385 0
-356 -358 -362 -370 386 0
-356 -358 -362 -370 -386 0

